NAME : portcgen-19-4
COMMENT : portcgen N=19, seed=4
TYPE : TSP
DIMENSION : 19
EDGE_WEIGHT_TYPE : EUC_2D
NODE_COORD_SECTION
1 56601 -345890
2 -107598 17705
3 187936 -520924
4 81590 -196234
5 -184864 -113834
6 -117632 -227640
7 5956 29500
8 175312 -223789
9 160842 -293210
10 105275 204397
11 355225 380424
12 5986 16030
13 -348170 -219473
14 -206716 -58729
15 186823 -105230
16 -198702 -130865
17 269828 -127429
18 -198483 -112538
19 -11830 -265272
